data;

param:
I: Value :=
0    47
1    1
2    45
3    19
4    38
5    82
6    52
7    48
8    50
9    3
10    12
11    13
12    37
13    20
14    18
15    2
16    64
17    4
18    60
19    21
20    83
21    55
22    51
23    46
24    45
25    91
26    62
27    46
28    91
29    87
30    89
31    38
32    40
33    34
34    57
35    78
36    68
37    10
38    27
39    18
40    65
41    91
42    83
43    54
44    12;

param TargetSum := 1115;
